benchmarks/bfuzz0/5144136341878211919726228931381425065.smt2
(set-logic QF_FP)
(declare-const x0 (_ FloatingPoint 11 53))
(declare-const x1 (_ FloatingPoint 11 53))
(assert (fp.gt (fp.sub RNE x1 x0) (fp.sub RNE x1 x1)))
(assert (fp.gt (fp.add RNE x0 x0) (fp.neg x1)))
(check-sat)
