db/data/5144136341878211919726228931381425065.z3.out
sat
-------------------
.817505625
